c This is an instance of the exact track of PACE 2020 Challenge, see https://pacechallenge.org/2020/ 
c TYPE: biology 
c ORIGIN: ginsim.org/models_repository 
c DESCRIPTION: nan 
p tdp 28 57
1 3
1 26
1 17
1 23
3 6
3 26
3 5
8 13
8 2
8 14
8 11
13 24
13 10
13 14
18 22
18 9
18 23
18 11
18 12
22 19
22 7
22 12
20 25
20 27
20 23
20 16
25 27
25 4
25 21
5 6
5 23
5 17
6 17
2 10
2 24
2 14
21 28
21 16
21 4
28 26
28 27
28 23
26 15
26 17
27 16
16 4
19 7
19 9
9 7
9 12
11 24
11 15
24 10
23 15
15 7
15 14
15 12
